62
150
118	1
117	1
115	2
114	2
113	2
112	3
111	1
110	2
109	3
108	1
107	1
106	1
105	1
104	1
103	2
102	1
101	2
100	2
99	1
97	1
96	1
95	2
91	1
88	1
87	1
86	1
85	1
84	1
82	1
81	2
80	1
79	1
78	2
77	2
73	2
72	1
71	1
70	1
68	1
66	2
64	2
62	2
60	1
58	3
56	3
55	2
53	1
52	2
51	3
50	2
49	2
46	1
45	3
42	1
41	3
40	2
39	1
38	1
36	2
34	4
33	1
30	1
